SCIP version 5.0.0 [precision: 8 byte] [memory: block] [mode: optimized] [LP solver: NONE] [GitHash: 3bbd232]
Copyright (C) 2002-2017 Konrad-Zuse-Zentrum fuer Informationstechnik Berlin (ZIB)

External codes: 
  Readline EditLine w  GNU library for command line editing (gnu.org/s/readline)
  CppAD 20160000.1     Algorithmic Differentiation of C++ algorithms developed by B. Bell (www.coin-or.org/CppAD)
  ZLIB 1.2.5           General purpose compression library by J. Gailly and M. Adler (zlib.net)
  GMP 6.1.2            GNU Multiple Precision Arithmetic Library developed by T. Granlund (gmplib.org)

user parameter file <scip.set> not found - using default parameters

read problem <../../Split_data/output/statG/4/3_sample_statG.logreg>
============

File name	:	../../Split_data/output/statG/4/3_sample_statG.logreg
Problem name 	:	3_sample_statG
Number of data	:	800
Number of var	:	61
The given data has linear dependence
13 sets of column vector are linearly dependent:

[dim=1] time: 0.033378
[dim=2] time: 0.073138
[dim=3] time: 0.111507
[dim=4] time: 0.149649
[dim=5] time: 0.188852
[dim=6] time: 0.229974
[dim=7] time: 0.270676
[dim=8] time: 0.31145
[dim=9] time: 0.351965
[dim=10] time: 0.393243
[dim=11] time: 0.434065
[dim=12] time: 0.474037
[dim=13] time: 0.514175
[dim=14] time: 0.553224
[dim=15] time: 0.59188
[dim=16] time: 0.630567
[dim=17] time: 0.67267
[dim=18] time: 0.723054
[dim=19] time: 0.764438
[dim=20] time: 0.802801
[dim=21] time: 0.840238
[dim=22] time: 0.875454
[dim=23] Time of forward = 0.910501sec.
AIC: 779.771
k: 22

[dim=48] time: 0.12293
[dim=47] time: 0.203773
[dim=46] time: 0.263168
[dim=45] time: 0.329439
[dim=44] time: 0.395771
[dim=43] time: 0.455263
[dim=42] time: 0.514448
[dim=41] time: 0.569498
[dim=40] time: 0.619315
[dim=39] time: 0.680899
[dim=38] time: 0.721471
[dim=37] time: 0.775249
[dim=36] time: 0.824242
[dim=35] time: 0.872523
[dim=34] time: 0.910515
[dim=33] time: 0.950132
[dim=32] time: 0.992128
[dim=31] time: 1.03393
[dim=30] time: 1.07183
[dim=29] time: 1.10733
[dim=28] time: 1.14093
[dim=27] time: 1.17376
[dim=26] time: 1.20752
[dim=25] time: 1.23871
[dim=24] time: 1.26308
[dim=23] Time of backward = 1.28181sec.
AIC: 784.28
k: 24
